c description: Random 3-CNF over 19 variables and 81 clauses
c generator: CNFgen (0.9.2)
c copyright: (C) 2012-2022 Massimo Lauria <massimo.lauria@uniroma1.it>
c url: https://massimolauria.net/cnfgen
c command line: cnfgen --output CNF_4.28/19_bit_81_384.cnf randkcnf 3 19 81
c
p cnf 19 81
4 8 -11 0
-1 4 -17 0
3 14 -16 0
2 3 -9 0
1 -12 -19 0
4 7 10 0
10 12 15 0
1 -9 -11 0
-6 13 17 0
-3 -5 -7 0
5 12 -16 0
2 9 -11 0
-7 13 -19 0
5 10 -11 0
2 -6 -9 0
-2 11 19 0
3 5 15 0
-5 13 19 0
-7 10 19 0
8 -9 17 0
-1 -3 14 0
3 -9 16 0
-3 7 -11 0
11 14 -18 0
6 -8 -16 0
3 -10 17 0
-7 -9 11 0
-5 17 -18 0
2 9 -12 0
-7 -16 19 0
-15 -17 -19 0
7 -13 -17 0
8 -17 18 0
-5 14 -17 0
8 10 -14 0
-1 10 -17 0
3 -11 12 0
2 -8 -12 0
-2 -13 -19 0
-1 3 12 0
5 -14 16 0
-3 -6 -13 0
-2 18 19 0
6 -13 18 0
-10 -11 -13 0
2 -7 14 0
-4 -6 -7 0
3 -9 12 0
9 15 -19 0
-2 -3 9 0
-11 14 -19 0
-9 -14 19 0
-6 -9 -15 0
2 3 12 0
-5 -9 12 0
-3 4 -14 0
10 12 -18 0
-2 -6 -13 0
3 6 8 0
-3 -6 13 0
6 -7 -18 0
7 -11 -13 0
-13 15 -18 0
1 10 -17 0
-3 9 -13 0
1 9 -16 0
-1 -5 13 0
1 4 19 0
3 18 19 0
-8 15 -16 0
-2 -16 19 0
-2 3 6 0
-13 -15 -16 0
-2 6 14 0
1 -14 -18 0
4 -7 15 0
-3 12 -18 0
-10 14 -17 0
12 14 -16 0
2 10 16 0
-11 -12 13 0
